v1/2017/General_Track/CrCi/CrCy_10-sbox2-D5-sIn7.sl

(set-logic BV)


(define-fun origCir ( (LN39 Bool) (LN50 Bool) (k7 Bool)  )  Bool    
          (xor (and  LN39 k7 ) LN50 )
)


(synth-fun skel ( (LN39 Bool) (LN50 Bool) (k7 Bool)  )  Bool    
          ((Start Bool (
		                                  (and depth1 depth1)
		                                  (not depth1)
		                                  (or depth1 depth1)
		                                  (xor depth1 depth1)
          ))
          (depth1 Bool (
		                                  (and depth2 depth2)
		                                  (not depth2)
		                                  (or depth2 depth2)
		                                  (xor depth2 depth2)
		                                  LN50
          ))
          (depth2 Bool (
		                                  (and depth3 depth3)
		                                  (not depth3)
		                                  (or depth3 depth3)
		                                  (xor depth3 depth3)
		                                  LN39
          ))
          (depth3 Bool (
		                                  (and depth4 depth4)
		                                  (not depth4)
		                                  (or depth4 depth4)
		                                  (xor depth4 depth4)
          ))
          (depth4 Bool (
		                                  k7
          )))
)


(declare-var LN39 Bool)
(declare-var LN50 Bool)
(declare-var k7 Bool)

(constraint (= (origCir LN39 LN50 k7 ) (skel LN39 LN50 k7 )))


(check-synth)

